n = 10;
m = 3;

G = 
[[0.   0.75 0.48 0.95 0.96 0.63 0.07 0.25 0.   0.31]
 [0.75 0.   0.   0.37 0.   0.68 0.12 0.05 0.69 0.  ]
 [0.48 0.   0.   0.   0.74 0.   0.   0.   0.   0.38]
 [0.95 0.37 0.   0.   0.01 0.38 0.5  0.   0.   0.69]
 [0.96 0.   0.74 0.01 0.   0.59 0.53 0.   0.1  0.31]
 [0.63 0.68 0.   0.38 0.59 0.   0.91 0.   0.71 0.  ]
 [0.07 0.12 0.   0.5  0.53 0.91 0.   0.75 0.   0.  ]
 [0.25 0.05 0.   0.   0.   0.   0.75 0.   0.26 0.  ]
 [0.   0.69 0.   0.   0.1  0.71 0.   0.26 0.   0.  ]
 [0.31 0.   0.38 0.69 0.31 0.   0.   0.   0.   0.  ]];

H = 
[[0.   0.   0.57]
 [0.   0.   0.69]
 [0.57 0.69 0.  ]];
